n_res = 4;
rc = [ 0, 0, 0, 0 ];
n_tasks = 30;
d = [ 7, 9, 5, 5, 10, 7, 4, 5, 1, 6, 9, 10, 7, 5, 9, 2, 9, 3, 7, 4, 8, 9, 1, 8, 4, 10, 3, 10, 9, 9 ];
rr = [| 0, 0, 0, 0, 0, 0, 0, 0, 0, 0, 0, 0, 0, 0, 0, 0, 0, 0, 0, 0, 0, 0, 0, 0, 0, 0, 0, 0, 0, 0
      | 0, 0, 0, 0, 0, 0, 0, 0, 0, 0, 0, 0, 0, 0, 0, 0, 0, 0, 0, 0, 0, 0, 0, 0, 0, 0, 0, 0, 0, 0
      | 0, 0, 0, 0, 0, 0, 0, 0, 0, 0, 0, 0, 0, 0, 0, 0, 0, 0, 0, 0, 0, 0, 0, 0, 0, 0, 0, 0, 0, 0
      | 0, 0, 0, 0, 0, 0, 0, 0, 0, 0, 0, 0, 0, 0, 0, 0, 0, 0, 0, 0, 0, 0, 0, 0, 0, 0, 0, 0, 0, 0 |];
suc = [ { 4, 5, 10 },
       { 6, 8, 20 },
       { 6, 9, 14 },
       { 7, 11, 27 },
       { 7, 11, 21 },
       { 15, 19, 21 },
       { 12, 14, 17 },
       { 11, 18, 24 },
       { 13, 22, 27 },
       { 14, 16 },
       { 19, 22, 25 },
       { 13, 15, 23 },
       { 18, 20, 24 },
       { 23, 30 },
       { 18, 28 },
       { 17, 21 },
       { 19, 20, 25 },
       { 30 },
       { 26 },
       { 26, 29 },
       { 22, 23, 27 },
       { 29 },
       { 24 },
       { 25 },
       { 26, 29 },
       { 28 },
       { 28, 30 },
       {  },
       {  },
       {  } ];
